c A SAT instance generated from a 3-CNF formula that had 18 clauses and 9 variables
p cnf 9 18
5 1 -9 0
-5 8 -2 0
-7 -9 5 0
5 1 2 0
-1 -4 3 0
5 -6 -4 0
6 -1 -9 0
1 2 8 0
1 -3 6 0
-5 -8 -7 0
2 -9 -1 0
9 -7 -3 0
4 -8 -6 0
-3 7 1 0
-9 1 -8 0
2 6 -5 0
7 -6 -2 0
-4 9 6 0
